c A SAT instance generated from a 3-CNF formula that had 30 clauses and 6 variables
p cnf 6 33
4 2 5 0
-5 -3 -6 0
5 4 3 0
1 5 6 0
-6 -4 -1 0
3 -2 -6 0
5 3 1 0
-4 1 2 0
-2 1 -4 0
-6 5 2 0
-5 4 1 0
-6 -5 1 0
3 1 6 0
-1 -3 -6 0
-1 2 -6 0
2 -1 3 0
-4 -6 5 0
-4 -3 -2 0
-1 -5 -6 0
-2 -5 -6 0
6 3 4 0
-2 5 -4 0
2 -5 -1 0
-2 -6 -4 0
-6 1 -3 0
5 -3 -4 0
6 1 -3 0
-2 -4 -3 0
3 6 4 0
-2 5 3 0
-1 -2 -3 0
4 1 0
-4 -2 0
